c This Formular is generated by mcnf
c
c    horn? no 
c    forced? no 
c    mixed sat? no 
c    clause length = 3 
c
p cnf 20  91 
 -1 2 7 0
13 -15 -19 0
8 -7 6 0
17 -9 6 0
-17 -11 -13 0
-8 -1 -14 0
-2 -12 13 0
17 1 15 0
6 -18 -12 0
18 5 -4 0
-17 5 10 0
-12 17 1 0
8 -11 -4 0
15 9 11 0
18 -7 -9 0
18 13 -7 0
15 18 -7 0
18 -7 -3 0
18 -10 4 0
-15 -2 4 0
4 -12 7 0
2 -12 -15 0
2 16 4 0
3 2 14 0
-8 -4 9 0
-12 18 15 0
-19 -6 -20 0
-11 -15 -14 0
-18 1 20 0
18 14 13 0
9 -16 4 0
12 14 -5 0
-1 3 10 0
19 1 -18 0
19 2 1 0
-19 -12 13 0
4 -13 16 0
-4 -20 8 0
-20 17 -9 0
-12 1 20 0
-2 -3 -20 0
%
0

83 7 8 37 59 5 3 51 75 12 17 73 24 3 4 10 11 79 15 28
